solution status: optimal solution found
objective value:                                    2
shell_j_$_45                                        1 	(obj:0)
shell_j_$_52                                        1 	(obj:0)
shell_j_$_62                                        1 	(obj:0)
shell_j_$_97                                        1 	(obj:0)
shell_j_$_56                                        1 	(obj:0)
shell_j_$_51                                        1 	(obj:0)
shell_j_$_55                                        1 	(obj:0)
shell_j_$_57                                        1 	(obj:0)
shell_j_$_50                                        1 	(obj:0)
shell_j_$_69                                        1 	(obj:0)
shell_j_$_151                                       1 	(obj:0)
shell_i_$_46                                        1 	(obj:0)
shell_j_$_49                                        1 	(obj:0)
$_51_y                                            -14 	(obj:0)
$_51_z                                            -14 	(obj:0)
$_62_x                                            -14 	(obj:0)
$_62_y                                            -14 	(obj:0)
$_55_x                                            -14 	(obj:0)
$_55_y                                            -14 	(obj:0)
$_55_z                                            -23 	(obj:0)
$_62_z                                            -16 	(obj:0)
$_45_y                                            -14 	(obj:0)
$_57_x                                            -14 	(obj:0)
$_57_y                                            -14 	(obj:0)
$_57_z                                            -24 	(obj:0)
$_52_x                                            -14 	(obj:0)
$_97_x                                            -14 	(obj:0)
$_50_x                                            -14 	(obj:0)
$_50_y                                            -14 	(obj:0)
$_50_z                                            -22 	(obj:0)
$_97_y                                            -14 	(obj:0)
$_97_z                                            -21 	(obj:0)
$_69_x                                            -14 	(obj:0)
$_69_y                                            -14 	(obj:0)
$_69_z                                            -20 	(obj:0)
$_52_y                                            -14 	(obj:0)
$_52_z                                            -19 	(obj:0)
$_151_x                                           -14 	(obj:0)
$_151_y                                           -14 	(obj:0)
$_151_z                                           -17 	(obj:0)
$_56_x                                            -13 	(obj:0)
$_56_y                                            -14 	(obj:0)
$_46_x                                            -14 	(obj:0)
$_46_y                                            -13 	(obj:0)
$_46_z                                            -23 	(obj:0)
$_56_z                                            -23 	(obj:0)
$_45_z                                            -18 	(obj:0)
$_49_x                                            -14 	(obj:0)
$_49_y                                            -14 	(obj:0)
$_49_z                                            -15 	(obj:0)
$_45_x                                            -14 	(obj:0)
$_51_x                                            -14 	(obj:0)
x78                                                 1 	(obj:1)
x100                                                1 	(obj:1)
